80 875162214
67 25 29 31 3 62 50 72 76 58 19 60 39 75 40 48 74 11 36 61 16 13 5 79 77 23 73 52 56 47 27 14 22 4 54 15 30 46 6 51 78 18 65 9 17 49 59 44 10 21 42 63 69 24 35 53 41 28 68 2 70 57 80 34 12 8 43 20 55 37 66 33 7 32 45 71 1 26 64 38 
